p cnf 43 3
-3834 -4396 -4406 -4450 -4454 -4471 -4475 -4480 -5068 -5228 -5233 -5249 -5257 -5268 -5270 -5284 -7009 -7016 -7031 -7034 -7043 -8622 -8625 -8634 -8645 -8655 -8658 -9133 -9142 -9150 -9151 -9154 0
-3834 -4396 -4406 -4450 -4454 -4471 -4475 -4480 -5068 -5228 -5233 -5249 -5257 -5268 -5270 -5284 -7009 -7016 -7031 -7034 -7043 -8622 -8625 -8634 -8645 -8655 -8658 -8792 -8795 -8805 -8815 -8822 -9133 -9136 -9142 -9151 -9154 0
-3834 -4396 -4406 -4450 -4454 -4471 -4475 -4480 -5068 -5228 -5233 -5249 -5257 -5268 -5270 -5284 -7009 -7016 -7031 -7034 -7043 -8560 -8562 -8568 -8575 -8581 -8622 -8625 -8634 -8645 -8655 -8658 -8792 -8795 -8805 -8815 -8822 -9133 -9142 -9151 0
